nN = 8;
nR = 24;
nH = 2;

a = [[25, 23, 20, 16, 19, 22, 20, 16, 15, 22, 15, 21, 20, 23, 20, 22, 19, 25, 25, 24, 21, 17, 23, 17], [16, 19, 22, 22, 19, 23, 17, 24, 15, 24, 18, 19, 20, 24, 25, 25, 19, 24, 18, 21, 16, 25, 15, 20], [20, 18, 23, 23, 23, 17, 19, 16, 24, 24, 17, 23, 19, 22, 23, 25, 23, 18, 19, 24, 20, 17, 23, 23], [16, 16, 15, 23, 15, 15, 25, 22, 17, 20, 19, 16, 17, 17, 20, 17, 17, 18, 16, 18, 15, 25, 22, 17], [17, 23, 21, 20, 24, 22, 25, 17, 22, 20, 16, 22, 21, 23, 24, 15, 22, 25, 18, 19, 19, 17, 22, 23], [24, 21, 23, 17, 21, 19, 19, 17, 18, 24, 15, 15, 17, 18, 15, 24, 19, 21, 23, 24, 17, 20, 16, 21], [18, 21, 22, 23, 22, 15, 18, 15, 21, 22, 15, 23, 21, 25, 25, 23, 20, 16, 25, 17, 15, 15, 18, 16], [19, 24, 18, 17, 21, 18, 24, 25, 18, 23, 21, 15, 24, 23, 18, 18, 23, 23, 16, 20, 20, 19, 25, 21]];
c = [[[0, 0, 0, 0, 0, 0, 0, 0, 0, 0, 0, 0, 0, 0, 0, 0, 0, 0, 0, 0, 0, 0, 0, 0], [31, 34, 35, 38, 47, 37, 34, 40, 39, 41, 33, 30, 31, 37, 41, 44, 42, 44, 46, 40, 49, 33, 38, 48], [37, 39, 43, 37, 33, 44, 48, 38, 46, 47, 47, 46, 38, 33, 45, 38, 47, 35, 48, 36, 34, 49, 45, 32], [30, 37, 31, 44, 30, 32, 40, 41, 45, 39, 46, 37, 50, 32, 42, 41, 47, 47, 41, 32, 44, 47, 47, 40], [39, 45, 36, 36, 32, 50, 36, 30, 30, 42, 34, 35, 32, 50, 47, 31, 38, 45, 40, 35, 38, 41, 35, 45], [33, 41, 36, 30, 47, 44, 44, 39, 50, 45, 38, 33, 41, 41, 30, 38, 34, 46, 43, 39, 48, 32, 31, 31], [41, 39, 44, 48, 30, 40, 49, 39, 46, 40, 43, 39, 38, 40, 44, 36, 50, 50, 32, 41, 33, 41, 35, 34], [48, 50, 47, 37, 40, 31, 31, 50, 37, 43, 39, 46, 38, 45, 48, 43, 39, 46, 48, 49, 33, 30, 35, 40]], [[0, 0, 0, 0, 0, 0, 0, 0, 0, 0, 0, 0, 0, 0, 0, 0, 0, 0, 0, 0, 0, 0, 0, 0], [0, 0, 0, 0, 0, 0, 0, 0, 0, 0, 0, 0, 0, 0, 0, 0, 0, 0, 0, 0, 0, 0, 0, 0], [32, 31, 44, 36, 42, 36, 49, 38, 30, 43, 38, 31, 43, 43, 31, 30, 34, 38, 48, 48, 36, 48, 40, 42], [50, 49, 37, 32, 45, 40, 37, 49, 31, 46, 45, 40, 42, 33, 47, 30, 36, 48, 45, 32, 33, 43, 32, 36], [39, 41, 45, 41, 37, 40, 43, 48, 38, 39, 36, 42, 36, 31, 48, 43, 31, 40, 48, 34, 31, 44, 42, 42], [42, 40, 45, 45, 39, 43, 38, 36, 44, 37, 33, 37, 49, 41, 36, 43, 38, 41, 46, 41, 37, 35, 48, 37], [44, 34, 30, 50, 50, 41, 36, 33, 39, 48, 43, 34, 34, 46, 37, 32, 35, 37, 47, 50, 48, 49, 33, 48], [35, 31, 46, 41, 40, 39, 32, 49, 39, 43, 33, 43, 37, 38, 34, 48, 40, 32, 33, 31, 43, 39, 43, 40]], [[0, 0, 0, 0, 0, 0, 0, 0, 0, 0, 0, 0, 0, 0, 0, 0, 0, 0, 0, 0, 0, 0, 0, 0], [0, 0, 0, 0, 0, 0, 0, 0, 0, 0, 0, 0, 0, 0, 0, 0, 0, 0, 0, 0, 0, 0, 0, 0], [0, 0, 0, 0, 0, 0, 0, 0, 0, 0, 0, 0, 0, 0, 0, 0, 0, 0, 0, 0, 0, 0, 0, 0], [47, 48, 43, 34, 30, 40, 34, 49, 38, 41, 30, 40, 50, 42, 33, 32, 45, 31, 40, 46, 42, 35, 44, 42], [44, 33, 37, 41, 48, 34, 42, 32, 32, 45, 30, 43, 33, 34, 49, 42, 30, 34, 43, 33, 38, 42, 47, 37], [49, 44, 49, 41, 44, 45, 47, 42, 39, 30, 50, 33, 44, 33, 39, 36, 33, 39, 46, 43, 37, 34, 41, 36], [30, 41, 33, 49, 46, 37, 34, 40, 37, 47, 30, 37, 42, 43, 47, 35, 39, 40, 30, 38, 31, 45, 36, 38], [44, 49, 38, 34, 30, 45, 32, 43, 47, 47, 43, 34, 44, 39, 34, 41, 40, 43, 50, 49, 47, 50, 44, 49]], [[0, 0, 0, 0, 0, 0, 0, 0, 0, 0, 0, 0, 0, 0, 0, 0, 0, 0, 0, 0, 0, 0, 0, 0], [0, 0, 0, 0, 0, 0, 0, 0, 0, 0, 0, 0, 0, 0, 0, 0, 0, 0, 0, 0, 0, 0, 0, 0], [0, 0, 0, 0, 0, 0, 0, 0, 0, 0, 0, 0, 0, 0, 0, 0, 0, 0, 0, 0, 0, 0, 0, 0], [0, 0, 0, 0, 0, 0, 0, 0, 0, 0, 0, 0, 0, 0, 0, 0, 0, 0, 0, 0, 0, 0, 0, 0], [50, 48, 34, 32, 46, 46, 45, 31, 33, 41, 41, 30, 30, 39, 47, 50, 48, 33, 48, 50, 35, 37, 40, 45], [34, 44, 40, 46, 45, 39, 49, 50, 42, 43, 49, 50, 42, 46, 34, 46, 32, 47, 44, 44, 31, 37, 47, 43], [40, 45, 47, 34, 36, 47, 37, 35, 43, 45, 31, 34, 32, 37, 37, 46, 36, 43, 30, 35, 37, 30, 31, 35], [40, 34, 36, 36, 40, 42, 37, 43, 46, 41, 44, 33, 39, 36, 50, 49, 34, 32, 40, 39, 33, 44, 36, 38]], [[0, 0, 0, 0, 0, 0, 0, 0, 0, 0, 0, 0, 0, 0, 0, 0, 0, 0, 0, 0, 0, 0, 0, 0], [0, 0, 0, 0, 0, 0, 0, 0, 0, 0, 0, 0, 0, 0, 0, 0, 0, 0, 0, 0, 0, 0, 0, 0], [0, 0, 0, 0, 0, 0, 0, 0, 0, 0, 0, 0, 0, 0, 0, 0, 0, 0, 0, 0, 0, 0, 0, 0], [0, 0, 0, 0, 0, 0, 0, 0, 0, 0, 0, 0, 0, 0, 0, 0, 0, 0, 0, 0, 0, 0, 0, 0], [0, 0, 0, 0, 0, 0, 0, 0, 0, 0, 0, 0, 0, 0, 0, 0, 0, 0, 0, 0, 0, 0, 0, 0], [30, 46, 41, 49, 43, 33, 45, 45, 49, 47, 32, 31, 36, 30, 44, 46, 36, 34, 41, 30, 34, 46, 35, 44], [44, 38, 38, 37, 49, 47, 42, 48, 30, 39, 50, 49, 37, 32, 46, 46, 42, 41, 31, 45, 30, 44, 30, 44], [50, 46, 31, 41, 43, 48, 50, 43, 31, 31, 50, 39, 35, 34, 48, 41, 34, 49, 49, 34, 48, 37, 37, 30]], [[0, 0, 0, 0, 0, 0, 0, 0, 0, 0, 0, 0, 0, 0, 0, 0, 0, 0, 0, 0, 0, 0, 0, 0], [0, 0, 0, 0, 0, 0, 0, 0, 0, 0, 0, 0, 0, 0, 0, 0, 0, 0, 0, 0, 0, 0, 0, 0], [0, 0, 0, 0, 0, 0, 0, 0, 0, 0, 0, 0, 0, 0, 0, 0, 0, 0, 0, 0, 0, 0, 0, 0], [0, 0, 0, 0, 0, 0, 0, 0, 0, 0, 0, 0, 0, 0, 0, 0, 0, 0, 0, 0, 0, 0, 0, 0], [0, 0, 0, 0, 0, 0, 0, 0, 0, 0, 0, 0, 0, 0, 0, 0, 0, 0, 0, 0, 0, 0, 0, 0], [0, 0, 0, 0, 0, 0, 0, 0, 0, 0, 0, 0, 0, 0, 0, 0, 0, 0, 0, 0, 0, 0, 0, 0], [47, 42, 35, 33, 49, 39, 43, 45, 37, 40, 50, 43, 45, 35, 48, 46, 41, 48, 39, 41, 46, 35, 43, 39], [50, 46, 43, 48, 35, 41, 36, 36, 33, 32, 44, 38, 32, 34, 38, 39, 47, 36, 35, 36, 34, 35, 43, 33]], [[0, 0, 0, 0, 0, 0, 0, 0, 0, 0, 0, 0, 0, 0, 0, 0, 0, 0, 0, 0, 0, 0, 0, 0], [0, 0, 0, 0, 0, 0, 0, 0, 0, 0, 0, 0, 0, 0, 0, 0, 0, 0, 0, 0, 0, 0, 0, 0], [0, 0, 0, 0, 0, 0, 0, 0, 0, 0, 0, 0, 0, 0, 0, 0, 0, 0, 0, 0, 0, 0, 0, 0], [0, 0, 0, 0, 0, 0, 0, 0, 0, 0, 0, 0, 0, 0, 0, 0, 0, 0, 0, 0, 0, 0, 0, 0], [0, 0, 0, 0, 0, 0, 0, 0, 0, 0, 0, 0, 0, 0, 0, 0, 0, 0, 0, 0, 0, 0, 0, 0], [0, 0, 0, 0, 0, 0, 0, 0, 0, 0, 0, 0, 0, 0, 0, 0, 0, 0, 0, 0, 0, 0, 0, 0], [0, 0, 0, 0, 0, 0, 0, 0, 0, 0, 0, 0, 0, 0, 0, 0, 0, 0, 0, 0, 0, 0, 0, 0], [34, 38, 41, 38, 49, 43, 39, 34, 36, 45, 48, 48, 37, 35, 50, 31, 37, 43, 47, 50, 40, 45, 50, 43]], [[0, 0, 0, 0, 0, 0, 0, 0, 0, 0, 0, 0, 0, 0, 0, 0, 0, 0, 0, 0, 0, 0, 0, 0], [0, 0, 0, 0, 0, 0, 0, 0, 0, 0, 0, 0, 0, 0, 0, 0, 0, 0, 0, 0, 0, 0, 0, 0], [0, 0, 0, 0, 0, 0, 0, 0, 0, 0, 0, 0, 0, 0, 0, 0, 0, 0, 0, 0, 0, 0, 0, 0], [0, 0, 0, 0, 0, 0, 0, 0, 0, 0, 0, 0, 0, 0, 0, 0, 0, 0, 0, 0, 0, 0, 0, 0], [0, 0, 0, 0, 0, 0, 0, 0, 0, 0, 0, 0, 0, 0, 0, 0, 0, 0, 0, 0, 0, 0, 0, 0], [0, 0, 0, 0, 0, 0, 0, 0, 0, 0, 0, 0, 0, 0, 0, 0, 0, 0, 0, 0, 0, 0, 0, 0], [0, 0, 0, 0, 0, 0, 0, 0, 0, 0, 0, 0, 0, 0, 0, 0, 0, 0, 0, 0, 0, 0, 0, 0], [0, 0, 0, 0, 0, 0, 0, 0, 0, 0, 0, 0, 0, 0, 0, 0, 0, 0, 0, 0, 0, 0, 0, 0]]];

q = [[[8, 116], [18, 119], [22, 122], [5, 113], [11, 106], [11, 125], [22, 108], [11, 116], [17, 110], [22, 111], [11, 109], [20, 114], [13, 107], [13, 120], [7, 125], [22, 119], [15, 109], [22, 106], [24, 109], [8, 107], [8, 115], [24, 109], [18, 109], [8, 122]], [[24, 121], [14, 116], [11, 117], [15, 123], [24, 107], [8, 122], [10, 120], [15, 125], [19, 110], [25, 112], [6, 122], [13, 114], [10, 121], [25, 113], [19, 107], [24, 107], [13, 122], [12, 106], [5, 116], [18, 112], [10, 108], [24, 118], [8, 112], [5, 115]], [[22, 117], [22, 125], [21, 105], [22, 123], [13, 117], [16, 113], [21, 115], [5, 120], [25, 122], [13, 109], [12, 124], [9, 107], [24, 113], [6, 125], [22, 111], [24, 105], [11, 113], [21, 109], [11, 105], [14, 120], [12, 120], [10, 120], [20, 119], [6, 116]], [[13, 114], [8, 121], [19, 115], [12, 124], [19, 118], [18, 110], [10, 120], [21, 105], [5, 117], [9, 124], [11, 114], [9, 118], [22, 117], [8, 115], [12, 114], [13, 115], [9, 114], [25, 124], [19, 113], [24, 112], [22, 121], [6, 123], [19, 118], [14, 125]], [[25, 118], [16, 123], [13, 121], [5, 118], [11, 119], [8, 125], [7, 120], [8, 106], [25, 122], [20, 117], [24, 125], [20, 111], [11, 123], [6, 109], [10, 106], [10, 112], [6, 112], [22, 106], [10, 119], [10, 109], [13, 108], [21, 105], [5, 108], [19, 115]], [[19, 124], [19, 117], [5, 111], [11, 110], [22, 106], [24, 121], [18, 125], [11, 121], [6, 108], [13, 115], [24, 106], [24, 114], [22, 119], [6, 108], [22, 108], [5, 123], [14, 110], [6, 116], [16, 120], [11, 106], [6, 121], [8, 124], [18, 122], [10, 110]], [[24, 116], [10, 121], [9, 107], [10, 109], [6, 120], [15, 121], [7, 107], [13, 111], [20, 106], [8, 118], [7, 125], [9, 121], [24, 125], [9, 105], [21, 105], [9, 118], [11, 122], [19, 123], [10, 109], [5, 124], [23, 110], [20, 119], [5, 108], [21, 110]], [[6, 125], [9, 120], [9, 113], [5, 109], [12, 122], [10, 111], [16, 119], [15, 124], [19, 106], [18, 122], [20, 116], [18, 106], [16, 125], [21, 122], [11, 112], [12, 107], [22, 117], [16, 109], [21, 110], [25, 110], [7, 125], [14, 109], [16, 108], [10, 108]]];
Q = [[36, 273], [35, 277], [38, 278], [34, 282], [32, 276], [34, 277], [31, 276], [34, 276]];
